data;

set A := 167653501 297578495 257072406 685904565 49471759 314496870 733519405 190349224 839256011 827094969 480345067 825905567 810065117 449527777 735647626 174364635 154645597 464879554 995111119 459272757 59072398 428304251 25503562 110387807 417419804 576134821 576929171 190417192 716184923 242258833 829969548 853699510 297593741 361217164 250724515 49511627 550309658 225335581 86910734 285194242 518352854 749213507 302935822 927622928 675768384 390327992 57015086 888445701 41683135 779000882 64622724 902475146 869847781 544012447 133781996 50198563 162476718 604249702 337217361 654553964;
param T := 15000000000;

end;
